c Random generated cnf formula, satisfiable: true
p cnf 10 50
-2 -3 -10 0
-6 2 -9 0
-3 -2 4 0
10 2 -4 0
-5 -1 -9 0
7 10 -9 0
5 7 -10 0
6 -2 1 0
-8 -10 -9 0
6 -2 -1 0
-6 5 -9 0
8 -6 2 0
-1 3 9 0
-7 6 1 0
1 -2 -6 0
-9 4 6 0
-1 -3 10 0
-4 -8 7 0
5 7 1 0
1 -3 -9 0
5 -6 -8 0
-9 -2 7 0
-8 -5 3 0
-1 -2 8 0
3 -5 -10 0
-1 -3 7 0
-7 8 -5 0
-1 -10 9 0
-8 -2 9 0
9 -6 10 0
-5 -6 -10 0
-10 -8 -3 0
-6 -7 8 0
-3 7 -4 0
3 -1 4 0
-1 -2 4 0
2 6 3 0
10 -6 1 0
7 1 -8 0
-1 7 2 0
-9 7 -5 0
9 -2 -1 0
-2 4 -7 0
2 4 5 0
-6 -8 2 0
-3 6 -8 0
-6 8 2 0
7 -3 5 0
-8 -6 -9 0
1 6 3 0
